4,1,5,2,8,4,6,4,10,2,9,5,7,8,3,8,2,10,1,10;8,1,7,1,10,1,3,4,4,9,9,9,6,8,1,9,5,10;3,1,9,1,6,2,8,3,1,4,5,6,4,6,2,5,7,9,10,8;6,1,4,3,3,3,7,4,8,7,2,6,10,4,5,8,3,9;1,1,5,3,9,2,9,3,7,5,4,7,6,6,2,9,8,10,10,10;2,2,2,3,6,3,4,5,5,7,7,6,10,3,2,7,1,7,8,9,9,10,3,10;5,5,8,6,3,6,7,7,4,8,9,6,1,8,6,9,10,9;8,2,1,2,7,2,2,4,4,4,1,5,6,5,3,7,9,7,10,6;2,1,4,2,5,4,7,3,8,5,3,5,1,6,6,7,9,8,5,9,10,7;5,1,3,2,1,3,8,8,9,4,2,8,10,5,7,10,6,10,4,10;
